; benchmark generated from python API
(set-info :status unknown)
(declare-fun x_month () Int)
(declare-fun x_day () Int)
(declare-fun x_year () Int)
(declare-fun y_month () Int)
(declare-fun y_day () Int)
(declare-fun y_year () Int)
(assert
 (>= x_month 1))
(assert
 (<= x_month 12))
(assert
 (>= x_day 1))
(assert
 (<= x_day 31))
(assert
 (let (($x883 (<= x_day 28)))
 (let (($x724 (<= x_day 29)))
 (let (($x345 (= (mod x_year 400) 0)))
 (let (($x855 (= (mod x_year 4) 0)))
 (let (($x386 (ite (or (and $x855 (and (distinct (mod x_year 100) 0) true)) $x345) $x724 $x883)))
 (let (($x721 (= x_month 2)))
 (ite $x721 $x386 true))))))))
(assert
 (let (($x726 (<= x_day 30)))
 (let (($x517 (or (= x_month 4) (= x_month 6) (= x_month 9) (= x_month 11))))
 (ite $x517 $x726 true))))
(assert
 (>= y_month 1))
(assert
 (<= y_month 12))
(assert
 (>= y_day 1))
(assert
 (<= y_day 31))
(assert
 (let (($x903 (<= y_day 28)))
 (let (($x886 (<= y_day 29)))
 (let (($x604 (= (mod y_year 400) 0)))
 (let (($x291 (= (mod y_year 4) 0)))
 (let (($x260 (ite (or (and $x291 (and (distinct (mod y_year 100) 0) true)) $x604) $x886 $x903)))
 (let (($x668 (= y_month 2)))
 (ite $x668 $x260 true))))))))
(assert
 (let (($x722 (<= y_day 30)))
 (let (($x687 (= y_month 4)))
 (let (($x338 (or $x687 (= y_month 6) (= y_month 9) (= y_month 11))))
 (ite $x338 $x722 true)))))
(assert
 (let (($x852 (= x_day 31)))
 (let (($x973 (= x_month 1)))
 (let (($x835 (= x_year 2023)))
 (and $x835 $x973 $x852)))))
(assert
 (let ((?x861 (+ (mod (- (+ x_month (+ (* 0 12) 3)) 1) 12) 1)))
 (let ((?x404 (ite (or (= ?x861 4) (= ?x861 6) (= ?x861 9) (= ?x861 11)) 30 31)))
 (let ((?x860 (+ 0 (div (- (+ x_month (+ (* 0 12) 3)) 1) 12))))
 (let ((?x683 (+ x_year ?x860)))
 (let (($x760 (or (and (= (mod ?x683 4) 0) (and (distinct (mod ?x683 100) 0) true)) (= (mod ?x683 400) 0))))
 (let ((?x917 (ite (= ?x861 2) (ite $x760 29 28) ?x404)))
 (let ((?x741 (ite (< x_day 1) 1 (ite (> x_day ?x917) ?x917 x_day))))
 (let ((?x740 (ite (< ?x741 1) 1 (ite (> ?x741 ?x917) ?x917 ?x741))))
 (let ((?x908 (ite (= 2 ?x861) (ite $x760 31 31) (ite (= 1 ?x861) (ite $x760 0 0) 0))))
 (let ((?x371 (ite (= 4 ?x861) (ite $x760 91 90) (ite (= 3 ?x861) (ite $x760 60 59) ?x908))))
 (let ((?x396 (ite (= 6 ?x861) (ite $x760 152 151) (ite (= 5 ?x861) (ite $x760 121 120) ?x371))))
 (let ((?x831 (ite (= 8 ?x861) (ite $x760 213 212) (ite (= 7 ?x861) (ite $x760 182 181) ?x396))))
 (let ((?x752 (ite (= 10 ?x861) (ite $x760 274 273) (ite (= 9 ?x861) (ite $x760 244 243) ?x831))))
 (let ((?x923 (ite (= 12 ?x861) (ite $x760 335 334) (ite (= 11 ?x861) (ite $x760 305 304) ?x752))))
 (let ((?x767 (- (+ (* 365 (- ?x683 1)) (div (- ?x683 1) 4)) (div (- ?x683 1) 100))))
 (let ((?x968 (- (+ (+ (+ ?x767 (div (- ?x683 1) 400)) ?x923) (- ?x740 1)) 730179)))
 (let ((?x962 (+ (+ ?x968 0) 730179)))
 (let ((?x964 (mod ?x962 146097)))
 (let ((?x970 (div ?x964 36524)))
 (let ((?x924 (ite (<= 4 ?x970) 3 ?x970)))
 (let ((?x950 (- ?x964 (* ?x924 36524))))
 (let ((?x795 (mod ?x950 1461)))
 (let ((?x748 (div ?x795 365)))
 (let ((?x859 (ite (<= 4 ?x748) 3 ?x748)))
 (let ((?x486 (+ (+ (* (div ?x962 146097) 400) (* ?x924 100)) (* (div ?x950 1461) 4))))
 (let ((?x631 (+ (+ ?x486 ?x859) 1)))
 (let (($x628 (or (and (= (mod ?x631 4) 0) (and (distinct (mod ?x631 100) 0) true)) (= (mod ?x631 400) 0))))
 (let ((?x538 (- ?x795 (* ?x859 365))))
 (let ((?x632 (ite $x628 31 31)))
 (let (($x585 (>= ?x538 ?x632)))
 (let ((?x518 (ite $x585 (+ (- ?x538 ?x632) 1) (+ (- ?x538 (ite $x628 0 0)) 1))))
 (let ((?x328 (ite $x628 60 59)))
 (let (($x597 (>= ?x538 ?x328)))
 (let ((?x634 (ite $x628 91 90)))
 (let (($x587 (>= ?x538 ?x634)))
 (let ((?x419 (ite $x587 (+ (- ?x538 ?x634) 1) (ite $x597 (+ (- ?x538 ?x328) 1) ?x518))))
 (let ((?x682 (ite $x628 121 120)))
 (let (($x415 (>= ?x538 ?x682)))
 (let ((?x678 (ite $x628 152 151)))
 (let (($x650 (>= ?x538 ?x678)))
 (let ((?x601 (ite $x650 (+ (- ?x538 ?x678) 1) (ite $x415 (+ (- ?x538 ?x682) 1) ?x419))))
 (let ((?x679 (ite $x628 182 181)))
 (let (($x380 (>= ?x538 ?x679)))
 (let ((?x651 (ite $x628 213 212)))
 (let (($x653 (>= ?x538 ?x651)))
 (let ((?x603 (ite $x653 (+ (- ?x538 ?x651) 1) (ite $x380 (+ (- ?x538 ?x679) 1) ?x601))))
 (let ((?x661 (ite $x628 244 243)))
 (let (($x511 (>= ?x538 ?x661)))
 (let ((?x672 (ite $x628 274 273)))
 (let (($x530 (>= ?x538 ?x672)))
 (let ((?x542 (ite $x530 (+ (- ?x538 ?x672) 1) (ite $x511 (+ (- ?x538 ?x661) 1) ?x603))))
 (let ((?x676 (ite $x628 305 304)))
 (let (($x534 (>= ?x538 ?x676)))
 (let ((?x649 (ite $x628 335 334)))
 (let (($x397 (>= ?x538 ?x649)))
 (let ((?x660 (ite $x397 (+ (- ?x538 ?x649) 1) (ite $x534 (+ (- ?x538 ?x676) 1) ?x542))))
 (let (($x867 (= 0 0)))
 (let ((?x426 (ite $x415 5 (ite $x587 4 (ite $x597 3 (ite $x585 2 1))))))
 (let ((?x528 (ite $x511 9 (ite $x653 8 (ite $x380 7 (ite $x650 6 ?x426))))))
 (let (($x974 (= y_month (ite $x867 ?x861 (ite $x397 12 (ite $x534 11 (ite $x530 10 ?x528)))))))
 (and (= y_year (ite $x867 ?x683 ?x631)) $x974 (= y_day (ite $x867 ?x740 ?x660))))))))))))))))))))))))))))))))))))))))))))))))))))))))))))))))
(assert
 (let (($x458 (= y_day 30)))
(let (($x687 (= y_month 4)))
(let (($x582 (= y_year 2023)))
(and $x582 $x687 $x458)))))
(check-sat)
